47412203,https://github.com/sohelamin/vue-example,sohelamin,2015-12-04T15:30:12Z
47410658,https://github.com/MaPePeR/jsColorblindSimulator,MaPePeR,2015-12-04T15:04:36Z
47412509,https://github.com/chenjiahan/relect,chenjiahan,2015-12-04T15:35:16Z
47411662,https://github.com/black-lotus/dnCalendar,black-lotus,2015-12-04T15:21:21Z
47410778,https://github.com/athombv/node-linux-input-device,athombv,2015-12-04T15:06:45Z
47412097,https://github.com/firefoxrebo/wekklyscripting,firefoxrebo,2015-12-04T15:28:16Z
47411379,https://github.com/theawless/Random-Scripts,theawless,2015-12-04T15:16:46Z
47412064,https://github.com/briebug/contact-mgr-demo,briebug,2015-12-04T15:27:42Z
47412506,https://github.com/dleshem/amazon-sitb,dleshem,2015-12-04T15:35:15Z
47412635,https://github.com/articulate/gateraid,articulate,2015-12-04T15:37:29Z
47410536,https://github.com/davidemannone/R-SON,davidemannone,2015-12-04T15:02:18Z
47410614,https://github.com/git-onepixel/jdate,git-onepixel,2015-12-04T15:03:43Z
47411784,https://github.com/RuthCatlow/GeologicalTime,RuthCatlow,2015-12-04T15:23:10Z
47413077,https://github.com/fmichael/Identicon.js,fmichael,2015-12-04T15:45:57Z
47412628,https://github.com/loopwerk/eslint-config-loopwerk,loopwerk,2015-12-04T15:37:23Z
47411271,https://github.com/myweishanli/extjs,myweishanli,2015-12-04T15:14:53Z
47412162,https://github.com/5-stones/keystone-menus,5-stones,2015-12-04T15:29:28Z
47412082,https://github.com/Techniv/siret-generator,Techniv,2015-12-04T15:27:57Z
47411111,https://github.com/sherkzein/Dynamic-Webapp,sherkzein,2015-12-04T15:12:19Z
47412615,https://github.com/zedd45/hapijs-docker,zedd45,2015-12-04T15:37:12Z
47412429,https://github.com/jpchip/nodeschool,jpchip,2015-12-04T15:34:00Z
47410829,https://github.com/gazalPublic/nvidia_conference,gazalPublic,2015-12-04T15:07:30Z
47411050,https://github.com/emadb/react-training-demos,emadb,2015-12-04T15:11:23Z
47412587,https://github.com/cortesimone/openstreetmap-slides-opengeodata-2015-polimi,cortesimone,2015-12-04T15:36:39Z
47412638,https://github.com/gfwfail/toshop-admin,gfwfail,2015-12-04T15:37:35Z
47411569,https://github.com/medicloc/medicloc-presentation,medicloc,2015-12-04T15:19:44Z
47413109,https://github.com/ashkanent/Dynamic_Tables,ashkanent,2015-12-04T15:46:39Z
47413224,https://github.com/yatsek/chrome-screen-capture,yatsek,2015-12-04T15:49:03Z
47411699,https://github.com/i-DAT-Qualia/Qualia-Shortener,i-DAT-Qualia,2015-12-04T15:21:51Z
47412524,https://github.com/barnettr/global_javascript,barnettr,2015-12-04T15:35:34Z
47412873,https://github.com/ghingyi/deep-purple,ghingyi,2015-12-04T15:42:19Z
47412880,https://github.com/tsj1107/react-native-pm25,tsj1107,2015-12-04T15:42:27Z
47411766,https://github.com/pavlovt/tails,pavlovt,2015-12-04T15:22:55Z
47411092,https://github.com/Lingvokot/React-Redux-ES6-presentation,Lingvokot,2015-12-04T15:12:00Z
47410557,https://github.com/nerdgrass/nodeschool,nerdgrass,2015-12-04T15:02:43Z
47410577,https://github.com/papuujp/TiSampleTwoTabbed,papuujp,2015-12-04T15:03:06Z
47412489,https://github.com/HerrSubset/nephtime,HerrSubset,2015-12-04T15:34:56Z
47413105,https://github.com/aarondesanto/PostmanExpress,aarondesanto,2015-12-04T15:46:36Z
47412110,https://github.com/ddejesus18/got-quote-generator,ddejesus18,2015-12-04T15:28:27Z
47411054,https://github.com/grebett/learning-elasticsearch,grebett,2015-12-04T15:11:26Z
47412602,https://github.com/xdream86/NodejsPlayground,xdream86,2015-12-04T15:36:57Z
47410480,https://github.com/azmisahin/azmisahin-software-web-service-WebVideoRecordRTC,azmisahin,2015-12-04T15:01:12Z
47412135,https://github.com/brayancruces/GGApp,brayancruces,2015-12-04T15:28:59Z
47413568,https://github.com/basskee/GrandCircus-Working-With-Postman,basskee,2015-12-04T15:54:35Z
47412529,https://github.com/maksyukvadim/PALINDROMES,maksyukvadim,2015-12-04T15:35:40Z
47412876,https://github.com/SeongHyunHan/Java,SeongHyunHan,2015-12-04T15:42:25Z
47411290,https://github.com/luchnikovs/Asteroids,luchnikovs,2015-12-04T15:15:12Z
47413240,https://github.com/tirli/jedi,tirli,2015-12-04T15:49:21Z
47413391,https://github.com/lyt0802/Eventify,lyt0802,2015-12-04T15:51:50Z
47412239,https://github.com/NathanStrutz/AdventOfCode2015Solutions,NathanStrutz,2015-12-04T15:30:51Z
47412044,https://github.com/sdanielsilvas/TigoMusic,sdanielsilvas,2015-12-04T15:27:19Z
47411116,https://github.com/sergiokhripunov/plugins,sergiokhripunov,2015-12-04T15:12:24Z
47413725,https://github.com/iametza/datraolat-kabia,iametza,2015-12-04T15:57:17Z
47412238,https://github.com/barnettr/jQuery,barnettr,2015-12-04T15:30:51Z
47413014,https://github.com/tetratorus/fundamentals,tetratorus,2015-12-04T15:44:45Z
47413287,https://github.com/vonmises/angular-meteor,vonmises,2015-12-04T15:49:57Z
47413366,https://github.com/unionco/gulp_tasks,unionco,2015-12-04T15:51:25Z
47412033,https://github.com/princebansal/cbvt,princebansal,2015-12-04T15:27:05Z
47410592,https://github.com/binodsh/box-collision,binodsh,2015-12-04T15:03:16Z
47413782,https://github.com/ZAPsurfGitHub/ZAP_d3,ZAPsurfGitHub,2015-12-04T15:58:24Z
47412746,https://github.com/ToonchZ/VGTartiniHR,ToonchZ,2015-12-04T15:39:35Z
47410792,https://github.com/travmichwill/vapir,travmichwill,2015-12-04T15:06:58Z
47410869,https://github.com/mattwojas/reactRouterFlux,mattwojas,2015-12-04T15:08:17Z
47413303,https://github.com/iQoderi/Web-wechat,iQoderi,2015-12-04T15:50:16Z
47411072,https://github.com/isaacgranillo/MEAN-Sockets-Example,isaacgranillo,2015-12-04T15:11:40Z
47410455,https://github.com/badattech/rejuvenation,badattech,2015-12-04T15:00:50Z
47411349,https://github.com/picxenk/TwoLangs,picxenk,2015-12-04T15:16:06Z
47411919,https://github.com/m-allanson/designbypascal-portfolio,m-allanson,2015-12-04T15:25:19Z
47412919,https://github.com/KBO-Techo-Dev/MagazinePro-jfw,KBO-Techo-Dev,2015-12-04T15:43:06Z
47413121,https://github.com/XDATA-Year-3/clique-propaganda,XDATA-Year-3,2015-12-04T15:46:51Z
47413491,https://github.com/prebm/edinost-skofice,prebm,2015-12-04T15:53:30Z
47412522,https://github.com/djheru/chirper,djheru,2015-12-04T15:35:33Z
47410715,https://github.com/SpiderLoveFish/ZJCRM,SpiderLoveFish,2015-12-04T15:05:32Z
47412576,https://github.com/Alex-Baranau/test-nodejs-prj2,Alex-Baranau,2015-12-04T15:36:28Z
47412829,https://github.com/kiranpariyar/JavaScriptAssignment,kiranpariyar,2015-12-04T15:41:15Z
47410971,https://github.com/danwkennedy/koa-meta-response,danwkennedy,2015-12-04T15:10:06Z
47412724,https://github.com/Sventenhaaf/portfolio2,Sventenhaaf,2015-12-04T15:39:10Z
47411162,https://github.com/owencraig/adventOfCode,owencraig,2015-12-04T15:13:03Z
47411513,https://github.com/ATL-WDI-Exercises/elves-wrapping-presents,ATL-WDI-Exercises,2015-12-04T15:18:44Z
47411631,https://github.com/seanhussey/1942-Atlantic-Terror,seanhussey,2015-12-04T15:20:44Z
47411117,https://github.com/JanVanStroedel/ogar,JanVanStroedel,2015-12-04T15:12:25Z
47412231,https://github.com/sazboom/igm-utils,sazboom,2015-12-04T15:30:47Z
47412382,https://github.com/thecodeite/bingo,thecodeite,2015-12-04T15:33:27Z
47412211,https://github.com/platanus/cordova-pallet,platanus,2015-12-04T15:30:23Z
47412000,https://github.com/SolidShake/Bessel,SolidShake,2015-12-04T15:26:30Z
47412668,https://github.com/KainosSoftwareLtd/gov-gitlab-dashboard,KainosSoftwareLtd,2015-12-04T15:38:04Z
47412337,https://github.com/j3tchy/tm-cli.dev,j3tchy,2015-12-04T15:32:35Z
47411198,https://github.com/VitoF/ysura_parking,VitoF,2015-12-04T15:13:35Z
47411396,https://github.com/webarthur/tpl,webarthur,2015-12-04T15:17:03Z
47411428,https://github.com/sdbx/ncc-extension,sdbx,2015-12-04T15:17:35Z
47412640,https://github.com/HristoGeorgiev12/OnlineChat,HristoGeorgiev12,2015-12-04T15:37:37Z
47412740,https://github.com/xReeQz/ng2048,xReeQz,2015-12-04T15:39:33Z
47410520,https://github.com/Pitchmaster/pitchmaster3000,Pitchmaster,2015-12-04T15:02:05Z
47410578,https://github.com/yejiaGH/try-es6,yejiaGH,2015-12-04T15:03:07Z
47413629,https://github.com/atumachimela/invent,atumachimela,2015-12-04T15:55:48Z
47410854,https://github.com/chache-schulz/agip-requerimientos,chache-schulz,2015-12-04T15:08:01Z
47410482,https://github.com/pfmescher/beltest,pfmescher,2015-12-04T15:01:15Z
47412137,https://github.com/HuyHL/learnyounode,HuyHL,2015-12-04T15:29:00Z
47412150,https://github.com/madhat5/Personal-Assitant_appProject-2,madhat5,2015-12-04T15:29:17Z
47413726,https://github.com/gonzalezem/Dylan_ITS,gonzalezem,2015-12-04T15:57:18Z
47411279,https://github.com/liamhubers/redux-io,liamhubers,2015-12-04T15:15:03Z
47413404,https://github.com/Skylarity/bs-template-generator,Skylarity,2015-12-04T15:52:04Z