46840237,https://github.com/woodensail/SimpleInteractiveInterpreter,woodensail,2015-11-25T05:44:37Z
46839304,https://github.com/CyclicMaterials/cycle-hammer-driver,CyclicMaterials,2015-11-25T05:23:40Z
46840824,https://github.com/hirenrojasara/Msg91,hirenrojasara,2015-11-25T05:59:57Z
46840292,https://github.com/doliawu/ScoreCrawler,doliawu,2015-11-25T05:46:09Z
46839365,https://github.com/wardlem/lambdash,wardlem,2015-11-25T05:24:54Z
46839834,https://github.com/xiaoking/eagle,xiaoking,2015-11-25T05:35:59Z
46840361,https://github.com/DomTheDeveloper/SaveASeat,DomTheDeveloper,2015-11-25T05:48:01Z
46839021,https://github.com/lukecfairchild/MCJS,lukecfairchild,2015-11-25T05:16:11Z
46838563,https://github.com/zackiles/lucy-bot,zackiles,2015-11-25T05:02:27Z
46839007,https://github.com/denisos/dos-sequential-dates,denisos,2015-11-25T05:15:54Z
46839396,https://github.com/aaneitchik/course-project,aaneitchik,2015-11-25T05:25:34Z
46838537,https://github.com/apharrison964/TarheelTracker,apharrison964,2015-11-25T05:01:30Z
46838557,https://github.com/erikasf/Simon-Says,erikasf,2015-11-25T05:02:15Z
46839091,https://github.com/newscorpaus/http-collapse,newscorpaus,2015-11-25T05:18:06Z
46840810,https://github.com/vinniefranco/reacditt,vinniefranco,2015-11-25T05:59:45Z
46840199,https://github.com/mslipper/object-convert,mslipper,2015-11-25T05:43:42Z
46839932,https://github.com/hugozap/basic-realtime-boilerplate,hugozap,2015-11-25T05:37:59Z
46840662,https://github.com/EQ4/midi-reader,EQ4,2015-11-25T05:55:46Z
46839325,https://github.com/yudielgc/chatroom,yudielgc,2015-11-25T05:24:15Z
46839018,https://github.com/bfitch/cerebral-falcor-todos,bfitch,2015-11-25T05:16:04Z
46839687,https://github.com/yanatan16/talk-js-parser,yanatan16,2015-11-25T05:32:31Z
46840592,https://github.com/ogoodo/notes,ogoodo,2015-11-25T05:54:16Z
46838882,https://github.com/NextZeus/myapp,NextZeus,2015-11-25T05:11:44Z
46838739,https://github.com/c-trimm/battle-sim,c-trimm,2015-11-25T05:07:39Z
46839621,https://github.com/rufengch/moving-app,rufengch,2015-11-25T05:31:14Z
46839668,https://github.com/AllNamesAlreadyTaken/NodeStuff,AllNamesAlreadyTaken,2015-11-25T05:32:08Z
46838575,https://github.com/mwinandy/chrome-screen-capture,mwinandy,2015-11-25T05:02:57Z
46838654,https://github.com/Bluu/my-first-meteor-app,Bluu,2015-11-25T05:05:35Z
46839565,https://github.com/iosmichael/pexelspace,iosmichael,2015-11-25T05:29:47Z
46838894,https://github.com/AntonStarostin/testsRepository,AntonStarostin,2015-11-25T05:12:12Z
46840468,https://github.com/joshdover/node-remote-pdb,joshdover,2015-11-25T05:50:40Z
46840581,https://github.com/dkdelp708/Guessing-Game,dkdelp708,2015-11-25T05:53:58Z
46838782,https://github.com/Fnandoz/Ionic-projects,Fnandoz,2015-11-25T05:09:05Z
46839099,https://github.com/vonmises/chart-library,vonmises,2015-11-25T05:18:22Z
46840090,https://github.com/fundon/array-clone,fundon,2015-11-25T05:41:40Z
46840514,https://github.com/tangdru/VizTech2015-Final,tangdru,2015-11-25T05:51:53Z
46839624,https://github.com/Mopezen/SE3316A_Lab4,Mopezen,2015-11-25T05:31:15Z
46840702,https://github.com/elhoussine/ibillstest,elhoussine,2015-11-25T05:56:52Z
46839500,https://github.com/AllNamesAlreadyTaken/meteorJSworks,AllNamesAlreadyTaken,2015-11-25T05:28:20Z
46838966,https://github.com/jperasmus/afrikaans-script-loader,jperasmus,2015-11-25T05:14:39Z
46838895,https://github.com/ccnokes/bogus-api,ccnokes,2015-11-25T05:12:12Z
46839332,https://github.com/moormaster/PasswordTrainer,moormaster,2015-11-25T05:24:27Z
46839460,https://github.com/fis-components/jquery-toastr,fis-components,2015-11-25T05:27:23Z
46839495,https://github.com/tscheys/hotel,tscheys,2015-11-25T05:28:13Z
46839080,https://github.com/meteormanaged/labtechsnoop,meteormanaged,2015-11-25T05:17:41Z
46840483,https://github.com/jesulink2514/KnockoutSeries,jesulink2514,2015-11-25T05:51:14Z
46840335,https://github.com/jfetter/awesomebookmarks,jfetter,2015-11-25T05:47:18Z
46838521,https://github.com/mrowe009/BaseballManagerServer,mrowe009,2015-11-25T05:01:01Z
46838622,https://github.com/polina-rubacova/xmlLab1,polina-rubacova,2015-11-25T05:04:33Z
46839261,https://github.com/hlminh2000/pomodoro,hlminh2000,2015-11-25T05:22:35Z
46838786,https://github.com/karlamagallanes/MindUniversity.AngularJS,karlamagallanes,2015-11-25T05:09:08Z
46840088,https://github.com/MopTym/saya,MopTym,2015-11-25T05:41:37Z
46839646,https://github.com/michaelneale/pipe-editor-poc,michaelneale,2015-11-25T05:31:42Z
46838527,https://github.com/rodoabad/pairing,rodoabad,2015-11-25T05:01:10Z
46839001,https://github.com/somlieng/Swolemate,somlieng,2015-11-25T05:15:42Z
46840432,https://github.com/tibic/feather-ui2.0,tibic,2015-11-25T05:49:39Z
46839468,https://github.com/Parks1993/physics-fun,Parks1993,2015-11-25T05:27:33Z
46838699,https://github.com/haleyshi/nodejs_learn,haleyshi,2015-11-25T05:06:39Z
46838778,https://github.com/jggomez/Microservicios-java-WS02,jggomez,2015-11-25T05:08:55Z
46840280,https://github.com/TinTinSh/AddCheckboxOrRadio,TinTinSh,2015-11-25T05:45:54Z
46839645,https://github.com/ice5050/FCC-Calculator,ice5050,2015-11-25T05:31:41Z
46839672,https://github.com/HelloYu/ionic-widget-selectInput,HelloYu,2015-11-25T05:32:13Z
46839043,https://github.com/sunnyluthra/st3-package-sync,sunnyluthra,2015-11-25T05:16:48Z
46838772,https://github.com/davinchoMoCa/appNodeJS,davinchoMoCa,2015-11-25T05:08:47Z
46840155,https://github.com/Bilal1122/Final-Year-Project,Bilal1122,2015-11-25T05:42:50Z
46838541,https://github.com/twomoonsfactory/custom-poll,twomoonsfactory,2015-11-25T05:01:39Z
46839635,https://github.com/lcain/pacman,lcain,2015-11-25T05:31:27Z
46840185,https://github.com/zcmyron/WebstormProjects,zcmyron,2015-11-25T05:43:28Z
46839358,https://github.com/akzReekoh/parse-connector,akzReekoh,2015-11-25T05:24:48Z
46839363,https://github.com/colvint/meteor-site,colvint,2015-11-25T05:24:54Z
46839407,https://github.com/ferdirn/javascripting,ferdirn,2015-11-25T05:25:48Z
46839330,https://github.com/colinjh/simon,colinjh,2015-11-25T05:24:22Z
46839889,https://github.com/ivankennethwang/generator-riot-koa-fullstack,ivankennethwang,2015-11-25T05:37:10Z
46838531,https://github.com/jmahabal/transitcards,jmahabal,2015-11-25T05:01:16Z
46838834,https://github.com/white-rabbit-japan/whiterabbitjapan.com,white-rabbit-japan,2015-11-25T05:10:31Z
46839404,https://github.com/MomsFriendlyDevCo/mfdc-repl,MomsFriendlyDevCo,2015-11-25T05:25:46Z
46840115,https://github.com/OptimusZhang/TestHybridApp,OptimusZhang,2015-11-25T05:42:10Z
46840297,https://github.com/y-ry/login-app,y-ry,2015-11-25T05:46:17Z
46840754,https://github.com/thea603/sometime,thea603,2015-11-25T05:58:32Z
46840195,https://github.com/jobeland/NetworkStorageBackend.Parse,jobeland,2015-11-25T05:43:40Z
46839487,https://github.com/wangnan0610/work-hasoffers,wangnan0610,2015-11-25T05:27:55Z
46839501,https://github.com/ytimocin/tebeshir-admin-app,ytimocin,2015-11-25T05:28:20Z
46840472,https://github.com/Manningham/PixleeApp,Manningham,2015-11-25T05:50:49Z
46839532,https://github.com/luisadrianml/test-vocacional,luisadrianml,2015-11-25T05:29:04Z
46839536,https://github.com/wedgwoodtom/javascript_playground,wedgwoodtom,2015-11-25T05:29:05Z
46840261,https://github.com/shurrik/noah,shurrik,2015-11-25T05:45:15Z
46840689,https://github.com/dortizgu/mobileTelcel,dortizgu,2015-11-25T05:56:41Z
46839190,https://github.com/gamedevmcgill/mcgamejam.com,gamedevmcgill,2015-11-25T05:20:30Z